%%% static parameters %%%
timespan = 1;
Fact = [2];
Distr1 = [5];
Distr2 = [10];
Clients_N = [100];
Demand_W = [15];
Lt0 = [4];
Lt1 = [4];
SS_ = [0.85];
DS_D = [8];
K = [200];
MA = [500];
%%% dynamic parameters %%%
lost_ratio_sales_ret_th = 0.695192910384943;
lost_ratio_sales_ret_w = 61;
lost_ratio_sales_dis_th = 0.12729746126850539;
lost_ratio_sales_dis_w = 21;
lost_ratio_sales_fac_th = 0.4809476334181123;
lost_ratio_sales_fac_w = 83;
stock_customer_MA_mean_relative_th = 0.46559830421344506;
stock_customer_MA_mean_relative_w = 70;
stock_distributor_MA_mean_relative_th = 0.43716442184693705;
stock_distributor_MA_mean_relative_w = 75;
stock_retailer_MA_mean_relative_th = 0.6359095743621239;
stock_retailer_MA_mean_relative_w = 19;
stock_factory_MA_mean_relative_th = 0.13718045132519752;
stock_factory_MA_mean_relative_w = 97;
